NAME : XML100_3361_19
DIMENSION : 101
NB_CLUSTERS : 3
CLUSTERING_ALG : KMedoids
CLUSTERING_PARAMS : k(2)
CLUSTERS
1 0
2 1 2 3 6 10 15 22 23 24 27 28 31 34 35 36 37 40 41 48 50 51 53 54 58 59 66 72 75 78 79 81 82 83 89 91 97 98
3 4 5 7 8 9 11 12 13 14 16 17 18 19 20 21 25 26 29 30 32 33 38 39 42 43 44 45 46 47 49 52 55 56 57 60 61 62 63 64 65 67 68 69 70 71 73 74 76 77 80 84 85 86 87 88 90 92 93 94 95 96 99 100
EOF